p min 49 520
n 17 -769176.0
n 18 14244.0
n 19 14244.0
n 20 14244.0
n 21 14244.0
n 23 7122.0
n 24 7122.0
n 26 21366.0
n 27 21366.0
n 28 21366.0
n 29 21366.0
n 30 21366.0
n 31 21366.0
n 33 21366.0
n 34 21366.0
n 36 49854.0
n 37 49854.0
n 38 49854.0
n 39 49854.0
n 41 42732.0
n 42 49854.0
n 43 28488.0
n 44 49854.0
n 45 142440.0
n 46 7122.0
n 47 7122.0
a 0 1 0 602189.0 4551.0
a 0 1 0 602189.0 4212.0
a 0 2 0 602189.0 4173.0
a 0 3 0 602189.0 4131.0
a 0 4 0 769176.0 1078.0
a 0 4 0 0.0 0.0
a 0 8 0 602189.0 94111.0
a 0 42 0 602189.0 84849.0
a 0 42 0 0.0 0.0
a 0 1 0 0.0 0.0
a 0 1 0 0.0 0.0
a 0 2 0 602189.0 4178.0
a 0 2 0 0.0 0.0
a 0 2 0 0.0 0.0
a 0 3 0 602189.0 4211.0
a 0 3 0 0.0 0.0
a 0 3 0 0.0 0.0
a 0 4 0 819030.0 1070.0
a 0 4 0 149562.0 0.0
a 0 8 0 0.0 0.0
a 0 8 0 0.0 0.0
a 0 8 0 602189.0 95979.0
a 0 42 0 602189.0 85123.0
a 0 42 0 0.0 0.0
a 1 2 0 602189.0 4210.0
a 1 0 0 0.0 0.0
a 1 0 0 0.0 0.0
a 1 0 0 602189.0 4212.0
a 1 0 0 602189.0 4551.0
a 1 2 0 602189.0 4315.0
a 1 3 0 602189.0 4474.0
a 1 4 0 769176.0 1151.0
a 1 20 0 602189.0 204194.0
a 1 39 0 602189.0 177986.0
a 1 2 0 0.0 0.0
a 1 2 0 0.0 0.0
a 1 3 0 602189.0 4480.0
a 1 3 0 0.0 0.0
a 1 3 0 0.0 0.0
a 1 4 0 769176.0 1124.0
a 1 4 0 0.0 0.0
a 1 4 0 0.0 0.0
a 1 20 0 602189.0 223244.0
a 1 20 0 0.0 0.0
a 1 20 0 0.0 0.0
a 1 39 0 602189.0 201162.0
a 1 39 0 0.0 0.0
a 1 39 0 0.0 0.0
a 2 3 0 602189.0 3837.0
a 2 1 0 0.0 0.0
a 2 0 0 0.0 0.0
a 2 1 0 0.0 0.0
a 2 0 0 0.0 0.0
a 2 0 0 602189.0 4178.0
a 2 0 0 602189.0 4173.0
a 2 1 0 602189.0 4315.0
a 2 1 0 602189.0 4210.0
a 2 3 0 602189.0 3165.0
a 2 4 0 242148.0 1076.0
a 2 16 0 602189.0 76121.0
a 2 32 0 602189.0 136509.0
a 2 3 0 0.0 0.0
a 2 3 0 0.0 0.0
a 2 4 0 505662.0 1052.0
a 2 4 0 0.0 0.0
a 2 4 0 -790542.0 0.0
a 2 16 0 263514.0 0.0
a 2 16 0 263514.0 0.0
a 2 16 0 1392731.0 81628.0
a 2 32 0 602189.0 145627.0
a 2 32 0 0.0 0.0
a 2 32 0 0.0 0.0
a 3 27 0 602189.0 139169.0
a 3 2 0 0.0 0.0
a 3 0 0 0.0 0.0
a 3 1 0 0.0 0.0
a 3 2 0 0.0 0.0
a 3 0 0 0.0 0.0
a 3 0 0 602189.0 4211.0
a 3 0 0 602189.0 4131.0
a 3 1 0 0.0 0.0
a 3 1 0 602189.0 4480.0
a 3 1 0 602189.0 4474.0
a 3 2 0 602189.0 3165.0
a 3 2 0 602189.0 3837.0
a 3 4 0 769176.0 1088.0
a 3 14 0 602189.0 93500.0
a 3 27 0 602189.0 137045.0
a 3 4 0 769176.0 1030.0
a 3 4 0 0.0 0.0
a 3 4 0 0.0 0.0
a 3 14 0 602189.0 96716.0
a 3 14 0 0.0 0.0
a 3 14 0 0.0 0.0
a 3 27 0 0.0 0.0
a 3 27 0 0.0 0.0
a 4 0 0 0.0 0.0
a 4 0 0 769176.0 1070.0
a 4 1 0 0.0 0.0
a 4 2 0 527028.0 0.0
a 4 3 0 0.0 0.0
a 4 0 0 -49854.0 0.0
a 4 0 0 619614.0 1078.0
a 4 1 0 0.0 0.0
a 4 1 0 769176.0 1124.0
a 4 1 0 769176.0 1151.0
a 4 2 0 263514.0 0.0
a 4 2 0 769176.0 1052.0
a 4 2 0 1559718.0 1076.0
a 4 3 0 0.0 0.0
a 4 3 0 769176.0 1030.0
a 4 3 0 769176.0 1088.0
a 5 6 0 769176.0 3333.0
a 5 6 0 769176.0 4046.0
a 5 7 0 769176.0 991.0
a 5 7 0 0.0 0.0
a 5 10 0 602189.0 166618.0
a 5 20 0 602189.0 34349.0
a 5 6 0 0.0 0.0
a 5 6 0 0.0 0.0
a 5 7 0 769176.0 988.0
a 5 7 0 0.0 0.0
a 5 10 0 652043.0 170643.0
a 5 10 0 99708.0 0.0
a 5 10 0 149562.0 0.0
a 5 20 0 602189.0 35689.0
a 5 20 0 0.0 0.0
a 5 20 0 0.0 0.0
a 6 29 0 602189.0 60311.0
a 6 5 0 0.0 0.0
a 6 5 0 0.0 0.0
a 6 5 0 769176.0 4046.0
a 6 5 0 769176.0 3333.0
a 6 7 0 769176.0 1036.0
a 6 29 0 602189.0 73642.0
a 6 37 0 602189.0 62341.0
a 6 7 0 769176.0 1043.0
a 6 7 0 0.0 0.0
a 6 7 0 0.0 0.0
a 6 29 0 0.0 0.0
a 6 29 0 0.0 0.0
a 6 37 0 602189.0 43186.0
a 6 37 0 0.0 0.0
a 6 37 0 0.0 0.0
a 7 5 0 0.0 0.0
a 7 5 0 769176.0 988.0
a 7 6 0 0.0 0.0
a 7 5 0 0.0 0.0
a 7 5 0 769176.0 991.0
a 7 6 0 0.0 0.0
a 7 6 0 769176.0 1043.0
a 7 6 0 769176.0 1036.0
a 8 9 0 602189.0 5520.0
a 8 0 0 0.0 0.0
a 8 0 0 602189.0 95979.0
a 8 0 0 602189.0 94111.0
a 8 0 0 0.0 0.0
a 8 9 0 602189.0 4741.0
a 8 10 0 602189.0 4619.0
a 8 11 0 602189.0 8048.0
a 8 12 0 769176.0 1142.0
a 8 12 0 0.0 0.0
a 8 25 0 602189.0 250682.0
a 8 9 0 0.0 0.0
a 8 9 0 0.0 0.0
a 8 10 0 602189.0 4711.0
a 8 10 0 0.0 0.0
a 8 10 0 0.0 0.0
a 8 11 0 602189.0 5167.0
a 8 11 0 0.0 0.0
a 8 11 0 0.0 0.0
a 8 12 0 769176.0 1141.0
a 8 12 0 0.0 0.0
a 8 25 0 602189.0 261659.0
a 8 25 0 0.0 0.0
a 8 25 0 0.0 0.0
a 9 10 0 602189.0 4855.0
a 9 8 0 0.0 0.0
a 9 8 0 0.0 0.0
a 9 8 0 602189.0 4741.0
a 9 8 0 602189.0 5520.0
a 9 10 0 602189.0 4444.0
a 9 11 0 602189.0 5805.0
a 9 12 0 769176.0 1213.0
a 9 14 0 602189.0 76221.0
a 9 17 0 602189.0 93166.0
a 9 35 0 602189.0 144639.0
a 9 10 0 0.0 0.0
a 9 10 0 0.0 0.0
a 9 11 0 602189.0 4973.0
a 9 11 0 0.0 0.0
a 9 11 0 0.0 0.0
a 9 12 0 769176.0 1212.0
a 9 12 0 0.0 0.0
a 9 12 0 0.0 0.0
a 9 14 0 602189.0 71999.0
a 9 14 0 0.0 0.0
a 9 14 0 0.0 0.0
a 9 17 0 602189.0 92162.0
a 9 17 0 0.0 0.0
a 9 17 0 0.0 0.0
a 9 35 0 602189.0 163163.0
a 9 35 0 0.0 0.0
a 9 35 0 0.0 0.0
a 10 28 0 602189.0 121379.0
a 10 9 0 0.0 0.0
a 10 5 0 0.0 0.0
a 10 8 0 0.0 0.0
a 10 9 0 0.0 0.0
a 10 5 0 -49854.0 0.0
a 10 5 0 502481.0 170643.0
a 10 5 0 452627.0 166618.0
a 10 8 0 0.0 0.0
a 10 8 0 602189.0 4711.0
a 10 8 0 602189.0 4619.0
a 10 9 0 602189.0 4444.0
a 10 9 0 602189.0 4855.0
a 10 11 0 602189.0 4714.0
a 10 12 0 769176.0 1211.0
a 10 28 0 602189.0 140388.0
a 10 11 0 602189.0 5067.0
a 10 11 0 0.0 0.0
a 10 11 0 0.0 0.0
a 10 12 0 769176.0 1212.0
a 10 12 0 0.0 0.0
a 10 12 0 0.0 0.0
a 10 28 0 0.0 0.0
a 10 28 0 0.0 0.0
a 11 21 0 602189.0 219954.0
a 11 8 0 0.0 0.0
a 11 9 0 0.0 0.0
a 11 10 0 0.0 0.0
a 11 8 0 0.0 0.0
a 11 8 0 602189.0 5167.0
a 11 8 0 602189.0 8048.0
a 11 9 0 0.0 0.0
a 11 9 0 602189.0 4973.0
a 11 9 0 602189.0 5805.0
a 11 10 0 0.0 0.0
a 11 10 0 602189.0 5067.0
a 11 10 0 602189.0 4714.0
a 11 12 0 769176.0 1358.0
a 11 21 0 602189.0 225845.0
a 11 31 0 602189.0 113461.0
a 11 38 0 602189.0 142338.0
a 11 12 0 769176.0 1379.0
a 11 12 0 0.0 0.0
a 11 12 0 0.0 0.0
a 11 21 0 0.0 0.0
a 11 21 0 0.0 0.0
a 11 31 0 602189.0 133850.0
a 11 31 0 0.0 0.0
a 11 31 0 0.0 0.0
a 11 38 0 602189.0 143179.0
a 11 38 0 0.0 0.0
a 11 38 0 0.0 0.0
a 12 8 0 0.0 0.0
a 12 8 0 769176.0 1141.0
a 12 9 0 0.0 0.0
a 12 10 0 0.0 0.0
a 12 11 0 0.0 0.0
a 12 8 0 0.0 0.0
a 12 8 0 769176.0 1142.0
a 12 9 0 0.0 0.0
a 12 9 0 769176.0 1212.0
a 12 9 0 769176.0 1213.0
a 12 10 0 0.0 0.0
a 12 10 0 769176.0 1212.0
a 12 10 0 769176.0 1211.0
a 12 11 0 0.0 0.0
a 12 11 0 769176.0 1379.0
a 12 11 0 769176.0 1358.0
a 13 14 0 769176.0 4252.0
a 13 14 0 769176.0 4348.0
a 13 15 0 769176.0 1069.0
a 13 31 0 602189.0 198730.0
a 13 35 0 602189.0 72921.0
a 13 38 0 602189.0 210568.0
a 13 14 0 0.0 0.0
a 13 14 0 0.0 0.0
a 13 15 0 769176.0 1069.0
a 13 15 0 0.0 0.0
a 13 15 0 0.0 0.0
a 13 31 0 602189.0 210286.0
a 13 31 0 0.0 0.0
a 13 31 0 0.0 0.0
a 13 35 0 602189.0 68245.0
a 13 35 0 0.0 0.0
a 13 35 0 0.0 0.0
a 13 38 0 602189.0 284204.0
a 13 38 0 0.0 0.0
a 13 38 0 0.0 0.0
a 14 15 0 769176.0 1047.0
a 14 13 0 0.0 0.0
a 14 3 0 0.0 0.0
a 14 9 0 0.0 0.0
a 14 13 0 0.0 0.0
a 14 3 0 0.0 0.0
a 14 3 0 602189.0 96716.0
a 14 3 0 602189.0 93500.0
a 14 9 0 0.0 0.0
a 14 9 0 602189.0 71999.0
a 14 9 0 602189.0 76221.0
a 14 13 0 769176.0 4348.0
a 14 13 0 769176.0 4252.0
a 14 15 0 769176.0 1054.0
a 14 42 0 602189.0 47783.0
a 14 47 0 602189.0 120555.0
a 14 15 0 0.0 0.0
a 14 15 0 0.0 0.0
a 14 42 0 602189.0 49538.0
a 14 42 0 0.0 0.0
a 14 42 0 0.0 0.0
a 14 47 0 602189.0 142758.0
a 14 47 0 0.0 0.0
a 14 47 0 0.0 0.0
a 15 14 0 0.0 0.0
a 15 13 0 0.0 0.0
a 15 14 0 0.0 0.0
a 15 13 0 0.0 0.0
a 15 13 0 769176.0 1069.0
a 15 13 0 769176.0 1069.0
a 15 14 0 769176.0 1054.0
a 15 14 0 769176.0 1047.0
a 16 17 0 769176.0 4448.0
a 16 2 0 0.0 0.0
a 16 2 0 338675.0 81628.0
a 16 2 0 338675.0 76121.0
a 16 2 0 -790542.0 0.0
a 16 17 0 769176.0 4307.0
a 16 18 0 769176.0 1150.0
a 16 18 0 0.0 0.0
a 16 39 0 602189.0 246574.0
a 16 17 0 0.0 0.0
a 16 17 0 0.0 0.0
a 16 18 0 1032690.0 1152.0
a 16 18 0 790542.0 0.0
a 16 39 0 602189.0 216600.0
a 16 39 0 0.0 0.0
a 16 39 0 0.0 0.0
a 17 45 0 602189.0 83383.0
a 17 16 0 0.0 0.0
a 17 9 0 0.0 0.0
a 17 16 0 0.0 0.0
a 17 9 0 0.0 0.0
a 17 9 0 602189.0 92162.0
a 17 9 0 602189.0 93166.0
a 17 16 0 769176.0 4307.0
a 17 16 0 769176.0 4448.0
a 17 18 0 769176.0 1085.0
a 17 34 0 602189.0 59083.0
a 17 45 0 602189.0 84296.0
a 17 18 0 769176.0 1076.0
a 17 18 0 0.0 0.0
a 17 18 0 0.0 0.0
a 17 34 0 0.0 0.0
a 17 34 0 0.0 0.0
a 17 34 0 602189.0 59190.0
a 17 45 0 0.0 0.0
a 17 45 0 0.0 0.0
a 18 16 0 0.0 0.0
a 18 16 0 769176.0 1152.0
a 18 17 0 0.0 0.0
a 18 16 0 -263514.0 0.0
a 18 16 0 -21366.0 1150.0
a 18 17 0 0.0 0.0
a 18 17 0 769176.0 1076.0
a 18 17 0 769176.0 1085.0
a 19 20 0 602189.0 3718.0
a 19 20 0 602189.0 3726.0
a 19 21 0 602189.0 3789.0
a 19 22 0 602189.0 2421.0
a 19 23 0 769176.0 950.0
a 19 23 0 0.0 0.0
a 19 40 0 602189.0 72828.0
a 19 20 0 0.0 0.0
a 19 20 0 0.0 0.0
a 19 21 0 602189.0 3600.0
a 19 21 0 0.0 0.0
a 19 21 0 0.0 0.0
a 19 22 0 602189.0 2987.0
a 19 22 0 0.0 0.0
a 19 22 0 0.0 0.0
a 19 23 0 783420.0 947.0
a 19 23 0 42732.0 0.0
a 19 40 0 602189.0 87469.0
a 19 40 0 0.0 0.0
a 19 40 0 0.0 0.0
a 20 19 0 0.0 0.0
a 20 1 0 0.0 0.0
a 20 5 0 0.0 0.0
a 20 19 0 0.0 0.0
a 20 1 0 0.0 0.0
a 20 1 0 602189.0 223244.0
a 20 1 0 602189.0 204194.0
a 20 5 0 0.0 0.0
a 20 5 0 602189.0 35689.0
a 20 5 0 602189.0 34349.0
a 20 19 0 602189.0 3726.0
a 20 19 0 602189.0 3718.0
a 20 21 0 602189.0 3792.0
a 20 22 0 602189.0 3758.0
a 20 23 0 769176.0 964.0
a 20 21 0 602189.0 3673.0
a 20 21 0 0.0 0.0
a 20 21 0 0.0 0.0
a 20 22 0 602189.0 3498.0
a 20 22 0 0.0 0.0
a 20 22 0 0.0 0.0
a 20 23 0 769176.0 970.0
a 20 23 0 0.0 0.0
a 20 23 0 0.0 0.0
a 21 22 0 602189.0 3900.0
a 21 11 0 0.0 0.0
a 21 11 0 0.0 0.0
a 21 19 0 0.0 0.0
a 21 20 0 0.0 0.0
a 21 11 0 602189.0 225845.0
a 21 11 0 602189.0 219954.0
a 21 19 0 0.0 0.0
a 21 19 0 602189.0 3600.0
a 21 19 0 602189.0 3789.0
a 21 20 0 0.0 0.0
a 21 20 0 602189.0 3673.0
a 21 20 0 602189.0 3792.0
a 21 22 0 602189.0 3891.0
a 21 23 0 769176.0 952.0
a 21 22 0 0.0 0.0
a 21 22 0 0.0 0.0
a 21 23 0 769176.0 950.0
a 21 23 0 0.0 0.0
a 21 23 0 0.0 0.0
a 22 21 0 0.0 0.0
a 22 19 0 0.0 0.0
a 22 20 0 0.0 0.0
a 22 21 0 0.0 0.0
a 22 19 0 0.0 0.0
a 22 19 0 602189.0 2987.0
a 22 19 0 602189.0 2421.0
a 22 20 0 0.0 0.0
a 22 20 0 602189.0 3498.0
a 22 20 0 602189.0 3758.0
a 22 21 0 602189.0 3891.0
a 22 21 0 602189.0 3900.0
a 22 23 0 769176.0 961.0
a 22 27 0 602189.0 90359.0
a 22 23 0 769176.0 961.0
a 22 23 0 0.0 0.0
a 22 23 0 0.0 0.0
a 22 27 0 602189.0 92267.0
a 22 27 0 0.0 0.0
a 22 27 0 0.0 0.0
a 23 19 0 0.0 0.0
a 23 19 0 769176.0 947.0
a 23 20 0 0.0 0.0
a 23 21 0 0.0 0.0
a 23 22 0 0.0 0.0
a 23 19 0 -14244.0 0.0
a 23 19 0 726444.0 950.0
a 23 20 0 0.0 0.0
a 23 20 0 769176.0 970.0
a 23 20 0 769176.0 964.0
a 23 21 0 0.0 0.0
a 23 21 0 769176.0 950.0
a 23 21 0 769176.0 952.0
a 23 22 0 0.0 0.0
a 23 22 0 769176.0 961.0
a 23 22 0 769176.0 961.0
a 24 30 0 602189.0 758666.0
a 24 25 0 602189.0 2147.0
a 24 26 0 769176.0 1066.0
a 24 30 0 602189.0 632639.0
a 24 47 0 602189.0 1660.0
a 24 48 0 602189.0 1969.0
a 24 25 0 602189.0 2198.0
a 24 25 0 0.0 0.0
a 24 25 0 0.0 0.0
a 24 26 0 769176.0 1013.0
a 24 26 0 0.0 0.0
a 24 26 0 0.0 0.0
a 24 30 0 0.0 0.0
a 24 30 0 0.0 0.0
a 24 47 0 602189.0 1640.0
a 24 47 0 0.0 0.0
a 24 47 0 0.0 0.0
a 24 48 0 602189.0 1984.0
a 24 48 0 0.0 0.0
a 24 48 0 0.0 0.0
a 25 26 0 769176.0 983.0
a 25 8 0 0.0 0.0
a 25 24 0 0.0 0.0
a 25 8 0 0.0 0.0
a 25 8 0 602189.0 261659.0
a 25 8 0 602189.0 250682.0
a 25 24 0 0.0 0.0
a 25 24 0 602189.0 2198.0
a 25 24 0 602189.0 2147.0
a 25 26 0 769176.0 983.0
a 25 47 0 602189.0 3228.0
a 25 48 0 602189.0 2327.0
a 25 26 0 0.0 0.0
a 25 26 0 0.0 0.0
a 25 47 0 602189.0 2093.0
a 25 47 0 0.0 0.0
a 25 47 0 0.0 0.0
a 25 48 0 602189.0 2020.0
a 25 48 0 0.0 0.0
a 25 48 0 0.0 0.0
a 26 25 0 0.0 0.0
a 26 24 0 0.0 0.0
a 26 25 0 0.0 0.0
a 26 24 0 0.0 0.0
a 26 24 0 769176.0 1013.0
a 26 24 0 769176.0 1066.0
a 26 25 0 769176.0 983.0
a 26 25 0 769176.0 983.0
a 26 47 0 769176.0 966.0
a 26 48 0 769176.0 950.0
a 26 47 0 769176.0 973.0
a 26 47 0 0.0 0.0
a 26 47 0 0.0 0.0
a 26 48 0 769176.0 951.0
a 26 48 0 0.0 0.0
a 26 48 0 0.0 0.0
a 27 3 0 0.0 0.0
a 27 3 0 0.0 0.0
a 27 22 0 0.0 0.0
a 27 3 0 602189.0 137045.0
a 27 3 0 602189.0 139169.0
a 27 22 0 0.0 0.0
a 27 22 0 602189.0 92267.0
a 27 22 0 602189.0 90359.0
a 27 28 0 602189.0 3789.0
a 27 29 0 602189.0 3666.0
a 27 30 0 602189.0 3981.0
a 27 31 0 602189.0 5951.0
a 27 32 0 602189.0 3400.0
a 27 33 0 605370.0 994.0
a 27 33 0 -491418.0 0.0
a 27 43 0 602189.0 51536.0
a 27 43 0 0.0 0.0
a 27 28 0 602189.0 3450.0
a 27 28 0 0.0 0.0
a 27 28 0 0.0 0.0
a 27 29 0 602189.0 4272.0
a 27 29 0 0.0 0.0
a 27 29 0 0.0 0.0
a 27 30 0 602189.0 4308.0
a 27 30 0 0.0 0.0
a 27 30 0 0.0 0.0
a 27 31 0 602189.0 4617.0
a 27 31 0 0.0 0.0
a 27 31 0 0.0 0.0
a 27 32 0 602189.0 3859.0
a 27 32 0 0.0 0.0
a 27 32 0 0.0 0.0
a 27 33 0 441564.0 995.0
a 27 33 0 0.0 0.0
a 27 43 0 602189.0 50448.0
a 27 43 0 0.0 0.0
a 28 10 0 0.0 0.0
a 28 10 0 0.0 0.0
a 28 27 0 0.0 0.0
a 28 10 0 602189.0 140388.0
a 28 10 0 602189.0 121379.0
a 28 27 0 0.0 0.0
a 28 27 0 602189.0 3450.0
a 28 27 0 602189.0 3789.0
a 28 29 0 602189.0 3480.0
a 28 30 0 602189.0 7521.0
a 28 31 0 602189.0 2202.0
a 28 32 0 602189.0 4262.0
a 28 33 0 769176.0 965.0
a 28 37 0 602189.0 22690.0
a 28 46 0 602189.0 21373.0
a 28 29 0 602189.0 3882.0
a 28 29 0 0.0 0.0
a 28 29 0 0.0 0.0
a 28 30 0 602189.0 3844.0
a 28 30 0 0.0 0.0
a 28 30 0 0.0 0.0
a 28 31 0 602189.0 1958.0
a 28 31 0 0.0 0.0
a 28 31 0 0.0 0.0
a 28 32 0 602189.0 3230.0
a 28 32 0 0.0 0.0
a 28 32 0 0.0 0.0
a 28 33 0 769176.0 978.0
a 28 33 0 0.0 0.0
a 28 33 0 0.0 0.0
a 28 37 0 602189.0 22508.0
a 28 37 0 0.0 0.0
a 28 37 0 0.0 0.0
a 28 46 0 602189.0 20056.0
a 28 46 0 0.0 0.0
a 28 46 0 0.0 0.0
a 29 6 0 0.0 0.0
a 29 6 0 0.0 0.0
a 29 27 0 0.0 0.0
a 29 28 0 0.0 0.0
a 29 6 0 602189.0 73642.0
a 29 6 0 602189.0 60311.0
a 29 27 0 0.0 0.0
a 29 27 0 602189.0 4272.0
a 29 27 0 602189.0 3666.0
a 29 28 0 0.0 0.0
a 29 28 0 602189.0 3882.0
a 29 28 0 602189.0 3480.0
a 29 30 0 602189.0 7251.0
a 29 31 0 602189.0 4129.0
a 29 32 0 602189.0 3748.0
a 29 33 0 769176.0 1019.0
a 29 40 0 602189.0 18120.0
a 29 43 0 602189.0 53901.0
a 29 30 0 602189.0 3855.0
a 29 30 0 0.0 0.0
a 29 30 0 0.0 0.0
a 29 31 0 602189.0 4003.0
a 29 31 0 0.0 0.0
a 29 31 0 0.0 0.0
a 29 32 0 602189.0 3954.0
a 29 32 0 0.0 0.0
a 29 32 0 0.0 0.0
a 29 33 0 790542.0 1014.0
a 29 33 0 42732.0 0.0
a 29 33 0 64098.0 0.0
a 29 40 0 602189.0 21899.0
a 29 40 0 0.0 0.0
a 29 40 0 0.0 0.0
a 29 43 0 602189.0 50483.0
a 29 43 0 0.0 0.0
a 29 43 0 0.0 0.0
a 30 31 0 602189.0 4179.0
a 30 24 0 0.0 0.0
a 30 24 0 0.0 0.0
a 30 27 0 0.0 0.0
a 30 28 0 0.0 0.0
a 30 29 0 0.0 0.0
a 30 24 0 602189.0 632639.0
a 30 24 0 602189.0 758666.0
a 30 27 0 0.0 0.0
a 30 27 0 602189.0 4308.0
a 30 27 0 602189.0 3981.0
a 30 28 0 0.0 0.0
a 30 28 0 602189.0 3844.0
a 30 28 0 602189.0 7521.0
a 30 29 0 0.0 0.0
a 30 29 0 602189.0 3855.0
a 30 29 0 602189.0 7251.0
a 30 31 0 602189.0 5541.0
a 30 32 0 602189.0 3386.0
a 30 33 0 769176.0 993.0
a 30 44 0 502481.0 44048.0
a 30 31 0 0.0 0.0
a 30 31 0 0.0 0.0
a 30 32 0 602189.0 2917.0
a 30 32 0 0.0 0.0
a 30 32 0 0.0 0.0
a 30 33 0 769176.0 994.0
a 30 33 0 0.0 0.0
a 30 33 0 0.0 0.0
a 30 44 0 552335.0 45261.0
a 30 44 0 0.0 0.0
a 30 44 0 -149562.0 0.0
a 31 32 0 602189.0 4143.0
a 31 30 0 0.0 0.0
a 31 11 0 0.0 0.0
a 31 13 0 0.0 0.0
a 31 27 0 0.0 0.0
a 31 28 0 0.0 0.0
a 31 29 0 0.0 0.0
a 31 30 0 0.0 0.0
a 31 11 0 0.0 0.0
a 31 11 0 602189.0 133850.0
a 31 11 0 602189.0 113461.0
a 31 13 0 0.0 0.0
a 31 13 0 602189.0 210286.0
a 31 13 0 602189.0 198730.0
a 31 27 0 0.0 0.0
a 31 27 0 602189.0 4617.0
a 31 27 0 602189.0 5951.0
a 31 28 0 0.0 0.0
a 31 28 0 602189.0 1958.0
a 31 28 0 602189.0 2202.0
a 31 29 0 0.0 0.0
a 31 29 0 602189.0 4003.0
a 31 29 0 602189.0 4129.0
a 31 30 0 602189.0 5541.0
a 31 30 0 602189.0 4179.0
a 31 32 0 602189.0 5066.0
a 31 33 0 769176.0 1072.0
a 31 46 0 602189.0 16877.0
a 31 32 0 0.0 0.0
a 31 32 0 0.0 0.0
a 31 33 0 769176.0 1073.0
a 31 33 0 0.0 0.0
a 31 33 0 0.0 0.0
a 31 46 0 602189.0 20685.0
a 31 46 0 0.0 0.0
a 31 46 0 0.0 0.0
a 32 44 0 602189.0 43719.0
a 32 31 0 0.0 0.0
a 32 2 0 0.0 0.0
a 32 27 0 0.0 0.0
a 32 28 0 0.0 0.0
a 32 29 0 0.0 0.0
a 32 30 0 0.0 0.0
a 32 31 0 0.0 0.0
a 32 2 0 0.0 0.0
a 32 2 0 602189.0 145627.0
a 32 2 0 602189.0 136509.0
a 32 27 0 0.0 0.0
a 32 27 0 602189.0 3859.0
a 32 27 0 602189.0 3400.0
a 32 28 0 0.0 0.0
a 32 28 0 602189.0 3230.0
a 32 28 0 602189.0 4262.0
a 32 29 0 0.0 0.0
a 32 29 0 602189.0 3954.0
a 32 29 0 602189.0 3748.0
a 32 30 0 0.0 0.0
a 32 30 0 602189.0 2917.0
a 32 30 0 602189.0 3386.0
a 32 31 0 602189.0 5066.0
a 32 31 0 602189.0 4143.0
a 32 33 0 769176.0 941.0
a 32 44 0 602189.0 46158.0
a 32 33 0 769176.0 938.0
a 32 33 0 0.0 0.0
a 32 33 0 0.0 0.0
a 32 44 0 0.0 0.0
a 32 44 0 0.0 0.0
a 33 27 0 163806.0 0.0
a 33 27 0 1260594.0 995.0
a 33 28 0 0.0 0.0
a 33 29 0 0.0 0.0
a 33 30 0 0.0 0.0
a 33 31 0 0.0 0.0
a 33 32 0 0.0 0.0
a 33 27 0 327612.0 0.0
a 33 27 0 769176.0 994.0
a 33 28 0 0.0 0.0
a 33 28 0 769176.0 978.0
a 33 28 0 769176.0 965.0
a 33 29 0 -21366.0 0.0
a 33 29 0 726444.0 1014.0
a 33 29 0 705078.0 1019.0
a 33 30 0 0.0 0.0
a 33 30 0 769176.0 994.0
a 33 30 0 769176.0 993.0
a 33 31 0 0.0 0.0
a 33 31 0 769176.0 1073.0
a 33 31 0 769176.0 1072.0
a 33 32 0 0.0 0.0
a 33 32 0 769176.0 938.0
a 33 32 0 769176.0 941.0
a 34 35 0 769176.0 5866.0
a 34 17 0 0.0 0.0
a 34 17 0 602189.0 59190.0
a 34 17 0 602189.0 59083.0
a 34 17 0 0.0 0.0
a 34 35 0 769176.0 4553.0
a 34 36 0 769176.0 1099.0
a 34 37 0 602189.0 305196.0
a 34 45 0 602189.0 24043.0
a 34 35 0 0.0 0.0
a 34 35 0 0.0 0.0
a 34 36 0 769176.0 1109.0
a 34 36 0 0.0 0.0
a 34 36 0 0.0 0.0
a 34 37 0 602189.0 416579.0
a 34 37 0 0.0 0.0
a 34 37 0 0.0 0.0
a 34 45 0 602189.0 24107.0
a 34 45 0 0.0 0.0
a 34 45 0 0.0 0.0
a 35 36 0 769176.0 1118.0
a 35 34 0 0.0 0.0
a 35 9 0 0.0 0.0
a 35 13 0 0.0 0.0
a 35 34 0 0.0 0.0
a 35 9 0 0.0 0.0
a 35 9 0 602189.0 163163.0
a 35 9 0 602189.0 144639.0
a 35 13 0 0.0 0.0
a 35 13 0 602189.0 68245.0
a 35 13 0 602189.0 72921.0
a 35 34 0 769176.0 4553.0
a 35 34 0 769176.0 5866.0
a 35 36 0 769176.0 1105.0
a 35 48 0 530969.0 55001.0
a 35 36 0 0.0 0.0
a 35 36 0 0.0 0.0
a 35 48 0 566579.0 54681.0
a 35 48 0 0.0 0.0
a 35 48 0 -106830.0 0.0
a 36 35 0 0.0 0.0
a 36 34 0 0.0 0.0
a 36 35 0 0.0 0.0
a 36 34 0 0.0 0.0
a 36 34 0 769176.0 1109.0
a 36 34 0 769176.0 1099.0
a 36 35 0 769176.0 1105.0
a 36 35 0 769176.0 1118.0
a 37 38 0 602189.0 4177.0
a 37 6 0 0.0 0.0
a 37 28 0 0.0 0.0
a 37 34 0 0.0 0.0
a 37 6 0 0.0 0.0
a 37 6 0 602189.0 43186.0
a 37 6 0 602189.0 62341.0
a 37 28 0 0.0 0.0
a 37 28 0 602189.0 22508.0
a 37 28 0 602189.0 22690.0
a 37 34 0 0.0 0.0
a 37 34 0 602189.0 416579.0
a 37 34 0 602189.0 305196.0
a 37 38 0 602189.0 7425.0
a 37 39 0 602189.0 6218.0
a 37 40 0 602189.0 4140.0
a 37 41 0 769176.0 1092.0
a 37 41 0 0.0 0.0
a 37 46 0 602189.0 7136.0
a 37 38 0 0.0 0.0
a 37 38 0 0.0 0.0
a 37 39 0 602189.0 4648.0
a 37 39 0 0.0 0.0
a 37 39 0 0.0 0.0
a 37 40 0 602189.0 4224.0
a 37 40 0 0.0 0.0
a 37 40 0 0.0 0.0
a 37 41 0 819030.0 1081.0
a 37 41 0 149562.0 0.0
a 37 46 0 602189.0 7114.0
a 37 46 0 0.0 0.0
a 37 46 0 0.0 0.0
a 38 39 0 602189.0 4620.0
a 38 37 0 0.0 0.0
a 38 11 0 0.0 0.0
a 38 13 0 0.0 0.0
a 38 37 0 0.0 0.0
a 38 11 0 0.0 0.0
a 38 11 0 602189.0 143179.0
a 38 11 0 602189.0 142338.0
a 38 13 0 0.0 0.0
a 38 13 0 602189.0 284204.0
a 38 13 0 602189.0 210568.0
a 38 37 0 602189.0 7425.0
a 38 37 0 602189.0 4177.0
a 38 39 0 602189.0 5436.0
a 38 40 0 602189.0 4319.0
a 38 41 0 769176.0 1113.0
a 38 43 0 602189.0 50947.0
a 38 46 0 602189.0 7734.0
a 38 39 0 0.0 0.0
a 38 39 0 0.0 0.0
a 38 40 0 602189.0 4221.0
a 38 40 0 0.0 0.0
a 38 40 0 0.0 0.0
a 38 41 0 769176.0 1110.0
a 38 41 0 0.0 0.0
a 38 41 0 0.0 0.0
a 38 43 0 602189.0 52883.0
a 38 43 0 0.0 0.0
a 38 43 0 0.0 0.0
a 38 46 0 602189.0 7435.0
a 38 46 0 0.0 0.0
a 38 46 0 0.0 0.0
a 39 40 0 602189.0 4617.0
a 39 38 0 0.0 0.0
a 39 1 0 0.0 0.0
a 39 16 0 0.0 0.0
a 39 37 0 0.0 0.0
a 39 38 0 0.0 0.0
a 39 1 0 0.0 0.0
a 39 1 0 602189.0 201162.0
a 39 1 0 602189.0 177986.0
a 39 16 0 0.0 0.0
a 39 16 0 602189.0 216600.0
a 39 16 0 602189.0 246574.0
a 39 37 0 0.0 0.0
a 39 37 0 602189.0 4648.0
a 39 37 0 602189.0 6218.0
a 39 38 0 602189.0 5436.0
a 39 38 0 602189.0 4620.0
a 39 40 0 602189.0 5662.0
a 39 41 0 769176.0 1212.0
a 39 44 0 602189.0 60477.0
a 39 40 0 0.0 0.0
a 39 40 0 0.0 0.0
a 39 41 0 769176.0 1215.0
a 39 41 0 0.0 0.0
a 39 41 0 0.0 0.0
a 39 44 0 602189.0 58432.0
a 39 44 0 0.0 0.0
a 39 44 0 0.0 0.0
a 40 46 0 602189.0 6974.0
a 40 39 0 0.0 0.0
a 40 19 0 0.0 0.0
a 40 29 0 0.0 0.0
a 40 37 0 0.0 0.0
a 40 38 0 0.0 0.0
a 40 39 0 0.0 0.0
a 40 19 0 0.0 0.0
a 40 19 0 602189.0 87469.0
a 40 19 0 602189.0 72828.0
a 40 29 0 0.0 0.0
a 40 29 0 602189.0 21899.0
a 40 29 0 602189.0 18120.0
a 40 37 0 0.0 0.0
a 40 37 0 602189.0 4224.0
a 40 37 0 602189.0 4140.0
a 40 38 0 0.0 0.0
a 40 38 0 602189.0 4221.0
a 40 38 0 602189.0 4319.0
a 40 39 0 602189.0 5662.0
a 40 39 0 602189.0 4617.0
a 40 41 0 769176.0 1063.0
a 40 46 0 602189.0 7084.0
a 40 41 0 769176.0 1064.0
a 40 41 0 0.0 0.0
a 40 41 0 0.0 0.0
a 40 46 0 0.0 0.0
a 40 46 0 0.0 0.0
a 41 37 0 0.0 0.0
a 41 37 0 769176.0 1081.0
a 41 38 0 0.0 0.0
a 41 39 0 0.0 0.0
a 41 40 0 0.0 0.0
a 41 37 0 -49854.0 0.0
a 41 37 0 619614.0 1092.0
a 41 38 0 0.0 0.0
a 41 38 0 769176.0 1110.0
a 41 38 0 769176.0 1113.0
a 41 39 0 0.0 0.0
a 41 39 0 769176.0 1215.0
a 41 39 0 769176.0 1212.0
a 41 40 0 0.0 0.0
a 41 40 0 769176.0 1064.0
a 41 40 0 769176.0 1063.0
a 42 0 0 0.0 0.0
a 42 0 0 602189.0 85123.0
a 42 14 0 0.0 0.0
a 42 0 0 0.0 0.0
a 42 0 0 602189.0 84849.0
a 42 14 0 0.0 0.0
a 42 14 0 602189.0 49538.0
a 42 14 0 602189.0 47783.0
a 43 27 0 0.0 0.0
a 43 27 0 602189.0 50448.0
a 43 29 0 0.0 0.0
a 43 38 0 0.0 0.0
a 43 27 0 0.0 0.0
a 43 27 0 602189.0 51536.0
a 43 29 0 0.0 0.0
a 43 29 0 602189.0 50483.0
a 43 29 0 602189.0 53901.0
a 43 38 0 0.0 0.0
a 43 38 0 602189.0 52883.0
a 43 38 0 602189.0 50947.0
a 44 32 0 0.0 0.0
a 44 30 0 99708.0 0.0
a 44 32 0 0.0 0.0
a 44 39 0 0.0 0.0
a 44 30 0 49854.0 0.0
a 44 30 0 602189.0 45261.0
a 44 30 0 751751.0 44048.0
a 44 32 0 602189.0 46158.0
a 44 32 0 602189.0 43719.0
a 44 39 0 0.0 0.0
a 44 39 0 602189.0 58432.0
a 44 39 0 602189.0 60477.0
a 45 17 0 0.0 0.0
a 45 17 0 0.0 0.0
a 45 34 0 0.0 0.0
a 45 17 0 602189.0 84296.0
a 45 17 0 602189.0 83383.0
a 45 34 0 0.0 0.0
a 45 34 0 602189.0 24107.0
a 45 34 0 602189.0 24043.0
a 46 40 0 0.0 0.0
a 46 28 0 0.0 0.0
a 46 31 0 0.0 0.0
a 46 37 0 0.0 0.0
a 46 38 0 0.0 0.0
a 46 40 0 0.0 0.0
a 46 28 0 0.0 0.0
a 46 28 0 602189.0 20056.0
a 46 28 0 602189.0 21373.0
a 46 31 0 0.0 0.0
a 46 31 0 602189.0 20685.0
a 46 31 0 602189.0 16877.0
a 46 37 0 0.0 0.0
a 46 37 0 602189.0 7114.0
a 46 37 0 602189.0 7136.0
a 46 38 0 0.0 0.0
a 46 38 0 602189.0 7435.0
a 46 38 0 602189.0 7734.0
a 46 40 0 602189.0 7084.0
a 46 40 0 602189.0 6974.0
a 47 48 0 602189.0 1741.0
a 47 14 0 0.0 0.0
a 47 24 0 0.0 0.0
a 47 25 0 0.0 0.0
a 47 26 0 0.0 0.0
a 47 14 0 0.0 0.0
a 47 14 0 602189.0 142758.0
a 47 14 0 602189.0 120555.0
a 47 24 0 0.0 0.0
a 47 24 0 602189.0 1640.0
a 47 24 0 602189.0 1660.0
a 47 25 0 0.0 0.0
a 47 25 0 602189.0 2093.0
a 47 25 0 602189.0 3228.0
a 47 26 0 0.0 0.0
a 47 26 0 769176.0 973.0
a 47 26 0 769176.0 966.0
a 47 48 0 602189.0 1671.0
a 47 48 0 0.0 0.0
a 47 48 0 0.0 0.0
a 48 47 0 0.0 0.0
a 48 24 0 0.0 0.0
a 48 25 0 0.0 0.0
a 48 26 0 0.0 0.0
a 48 35 0 71220.0 0.0
a 48 47 0 0.0 0.0
a 48 24 0 0.0 0.0
a 48 24 0 602189.0 1984.0
a 48 24 0 602189.0 1969.0
a 48 25 0 0.0 0.0
a 48 25 0 602189.0 2020.0
a 48 25 0 602189.0 2327.0
a 48 26 0 0.0 0.0
a 48 26 0 769176.0 951.0
a 48 26 0 769176.0 950.0
a 48 35 0 35610.0 0.0
a 48 35 0 602189.0 54681.0
a 48 35 0 709019.0 55001.0
a 48 47 0 602189.0 1671.0
a 48 47 0 602189.0 1741.0
